104 103 547 546 545 544 543 541 542 107 109 108 173 174 175 172 170 171 169 168 162 163 167 166 164 165 201 202 204 203 208 207 206 205 200 199 198 197 196 195 194 184 185 183 181 180 179 182 178 177 176 540 539 537 538 187 188 186 229 230 231 228 227 189 225 226 190 191 192 193 209 210 211 212 213 214 215 216 217 223 221 220 218 219 222 224 232 234 235 236 237 240 239 238 246 247 245 244 243 242 241 248 249 250 251 252 254 253 255 256 257 300 301 302 508 507 506 307 303 304 306 305 318 317 319 320 321 297 298 299 262 258 259 260 261 263 264 265 266 267 268 271 272 269 270 296 295 294 293 291 292 273 274 275 276 277 290 289 288 278 279 282 281 280 287 286 285 284 283 334 335 336 337 338 339 333 332 331 330 340 341 343 344 345 346 364 363 362 347 348 349 350 351 352 354 355 353 413 414 415 416 417 419 418 410 411 412 356 357 358 359 361 360 401 402 403 400 399 397 398 370 369 368 367 365 342 366 329 328 327 326 325 324 323 322 373 372 371 396 395 394 393 391 392 390 389 388 387 385 408 407 406 405 404 409 384 383 386 382 425 424 422 420 421 423 426 427 428 429 431 430 432 433 434 435 436 437 438 454 455 456 457 458 459 460 461 462 463 464 465 496 497 500 499 452 453 451 450 441 440 439 442 449 448 447 446 443 444 445 381 380 379 378 377 376 375 374 315 314 316 313 312 311 310 309 308 505 504 503 502 501 498 519 518 495 494 524 493 490 491 492 525 526 523 522 521 520 517 516 515 514 513 509 510 511 512 527 528 529 530 233 531 532 533 489 488 534 535 487 486 485 484 536 483 482 481 480 479 478 477 476 475 566 564 548 549 560 561 562 563 565 567 568 569 570 474 473 472 471 470 469 468 467 466 571 572 573 0 1 2 3 4 5 6 7 8 9 10 11 16 17 18 19 20 15 14 13 12 23 21 24 25 26 27 28 29 22 31 30 32 36 37 38 35 33 34 558 559 550 551 101 100 102 98 99 552 553 554 556 557 41 40 39 42 43 44 47 48 46 45 555 91 92 93 97 96 95 94 89 90 87 86 85 84 51 52 50 49 54 53 55 56 83 82 57 58 81 59 60 61 63 62 79 80 78 88 77 76 64 75 74 73 72 65 66 67 68 70 69 124 125 126 127 128 129 130 132 133 134 135 136 137 138 139 140 141 144 143 142 151 150 149 152 148 147 146 145 158 157 153 156 159 155 154 160 161 113 131 112 111 110 114 115 116 117 122 123 71 121 120 119 118 106 105